;test regex ([_a-z0-9-]+(\.[_a-z0-9-]+)*@[a-z0-9-]+(\.[a-z0-9-]+)*(\.[a-z]{2,4}))|(FakeEmail:)|(Email:)|(\1\2)|(\1\3)
(declare-const X String)
(assert (str.in_re X (re.union (re.union (re.union (re.union (re.++ (re.+ (re.union (str.to_re "_") (re.union (re.range "a" "z") (re.union (re.range "0" "9") (str.to_re "-"))))) (re.++ (re.* (re.++ (str.to_re ".") (re.+ (re.union (str.to_re "_") (re.union (re.range "a" "z") (re.union (re.range "0" "9") (str.to_re "-"))))))) (re.++ (str.to_re "@") (re.++ (re.+ (re.union (re.range "a" "z") (re.union (re.range "0" "9") (str.to_re "-")))) (re.++ (re.* (re.++ (str.to_re ".") (re.+ (re.union (re.range "a" "z") (re.union (re.range "0" "9") (str.to_re "-")))))) (re.++ (str.to_re ".") ((_ re.loop 2 4) (re.range "a" "z")))))))) (re.++ (str.to_re "F") (re.++ (str.to_re "a") (re.++ (str.to_re "k") (re.++ (str.to_re "e") (re.++ (str.to_re "E") (re.++ (str.to_re "m") (re.++ (str.to_re "a") (re.++ (str.to_re "i") (re.++ (str.to_re "l") (str.to_re ":"))))))))))) (re.++ (str.to_re "E") (re.++ (str.to_re "m") (re.++ (str.to_re "a") (re.++ (str.to_re "i") (re.++ (str.to_re "l") (str.to_re ":"))))))) (re.++ (_ re.reference 1) (_ re.reference 2))) (re.++ (_ re.reference 1) (_ re.reference 3)))))
; sanitize danger characters:  < > ' " &
(assert (not (str.in_re X (re.++ re.all (re.union (str.to_re "\u{3c}") (str.to_re "\u{3e}") (str.to_re "\u{27}") (str.to_re "\u{22}") (str.to_re "\u{26}")) re.all))))
(assert (< 9 (str.len X)))
(check-sat)
(get-model)